
Gurobi 10.0.1 (linux64) logging started Sun Nov 26 15:37:21 2023

Set parameter LogFile to value "ArtificialInstance/ExperimentV2/S4T3K1/BaRo/gurobi1.txt"
Gurobi Optimizer version 10.0.1 build v10.0.1rc0 (linux64)

CPU model: AMD EPYC 7H12 64-Core Processor, instruction set [SSE2|AVX|AVX2]
Thread count: 128 physical cores, 128 logical processors, using up to 32 threads

Academic license 656792 - for non-commercial use only - registered to b.___@student.vu.nl
Optimize a model with 1374 rows, 2001 columns and 6884 nonzeros
Model fingerprint: 0xd0be900f
Variable types: 1 continuous, 2000 integer (2000 binary)
Coefficient statistics:
  Matrix range     [1e+00, 4e+01]
  Objective range  [1e+00, 2e+01]
  Bounds range     [1e+00, 1e+00]
  RHS range        [1e+00, 1e+00]
Found heuristic solution: objective 382.3388315
Presolve time: 0.01s
Presolved: 1374 rows, 2001 columns, 6884 nonzeros
Variable types: 1 continuous, 2000 integer (2000 binary)

Root relaxation: objective 3.458250e+01, 1430 iterations, 0.04 seconds (0.03 work units)

    Nodes    |    Current Node    |     Objective Bounds      |     Work
 Expl Unexpl |  Obj  Depth IntInf | Incumbent    BestBd   Gap | It/Node Time

     0     0   34.58250    0  210  382.33883   34.58250  91.0%     -    0s
H    0     0                     265.4572216   34.58250  87.0%     -    0s
H    0     0                      69.1650053   34.58250  50.0%     -    0s
H    0     0                      55.9748231   34.58250  38.2%     -    0s
     0     0   38.31783    0  297   55.97482   38.31783  31.5%     -    0s
H    0     0                      51.4746057   38.31783  25.6%     -    0s
     0     0   41.87113    0  429   51.47461   41.87113  18.7%     -    0s
     0     0   41.90636    0  423   51.47461   41.90636  18.6%     -    0s
     0     0   41.90636    0  423   51.47461   41.90636  18.6%     -    0s
     0     0   44.79482    0  366   51.47461   44.79482  13.0%     -    0s
     0     0   44.81697    0  360   51.47461   44.81697  12.9%     -    0s
     0     0   45.39400    0  363   51.47461   45.39400  11.8%     -    0s
     0     0   45.50063    0  397   51.47461   45.50063  11.6%     -    0s
     0     0   45.50104    0  395   51.47461   45.50104  11.6%     -    0s
     0     0   45.50104    0  397   51.47461   45.50104  11.6%     -    0s
H    0     0                      51.4617219   45.72081  11.2%     -    0s
     0     0   45.72081    0  369   51.46172   45.72081  11.2%     -    0s
     0     0   45.98128    0  366   51.46172   45.98128  10.6%     -    0s
     0     0   46.24883    0  400   51.46172   46.24883  10.1%     -    0s
     0     0   46.24883    0  377   51.46172   46.24883  10.1%     -    0s
     0     0   46.24883    0  210   51.46172   46.24883  10.1%     -    0s
     0     0   46.24883    0  364   51.46172   46.24883  10.1%     -    1s
     0     0   46.24883    0  406   51.46172   46.24883  10.1%     -    1s
     0     0   46.24883    0  314   51.46172   46.24883  10.1%     -    1s
     0     0   46.24883    0  427   51.46172   46.24883  10.1%     -    1s
     0     0   46.24883    0  413   51.46172   46.24883  10.1%     -    1s
     0     0   46.24883    0  419   51.46172   46.24883  10.1%     -    1s
     0     0   46.24883    0  425   51.46172   46.24883  10.1%     -    1s
     0     0   46.24883    0  430   51.46172   46.24883  10.1%     -    1s
     0     0   46.24883    0  481   51.46172   46.24883  10.1%     -    1s
     0     0   46.24883    0  460   51.46172   46.24883  10.1%     -    1s
     0     0   46.35200    0  472   51.46172   46.35200  9.93%     -    1s
     0     0   46.35200    0  469   51.46172   46.35200  9.93%     -    1s
     0     0   46.49664    0  395   51.46172   46.49664  9.65%     -    1s
     0     0   46.49903    0  382   51.46172   46.49903  9.64%     -    1s
     0     0   46.51352    0  379   51.46172   46.51352  9.62%     -    1s
     0     0   46.52596    0  384   51.46172   46.52596  9.59%     -    1s
     0     0   46.71150    0  392   51.46172   46.71150  9.23%     -    1s
     0     0   46.71150    0  363   51.46172   46.71150  9.23%     -    2s
     0     2   46.71150    0  362   51.46172   46.71150  9.23%     -    2s

Cutting planes:
  Gomory: 3
  Zero half: 47
  RLT: 51

Explored 55 nodes (18011 simplex iterations) in 2.36 seconds (1.32 work units)
Thread count was 32 (of 128 available processors)

Solution count 6: 51.4617 51.4746 55.9748 ... 382.339

Optimal solution found (tolerance 1.00e-04)
Best objective 5.146172189898e+01, best bound 5.146172189898e+01, gap 0.0000%
